experiment/data/lkh-res/Vrp-Set-X-n242/Vrp-Set-X-n242-lkh/0.lkh1.vrp
NAME : 0
COMMENT : CVRP Instance
TYPE : CVRP
DIMENSION : 242
EDGE_WEIGHT_TYPE : EUC_2D
CAPACITY : 28
NODE_COORD_SECTION
1	0	0
2	34600	79300
3	69200	96600
4	17100	66600
5	28700	79500
6	9300	91900
7	71200	21600
8	99100	98800
9	47500	26600
10	7100	30700
11	8300	98700
12	51800	39200
13	80700	13400
14	37700	16400
15	69200	12700
16	70100	53000
17	83100	25500
18	93800	21000
19	87300	12700
20	56900	81700
21	79600	37900
22	600	18200
23	91700	62000
24	72800	93600
25	15700	64400
26	66800	33300
27	56400	87600
28	86100	33300
29	7000	7900
30	33000	93100
31	51300	30800
32	23000	72500
33	89600	10700
34	23400	75800
35	91100	97000
36	17700	58700
37	69700	3700
38	94700	61500
39	86100	5400
40	62000	66700
41	73900	57200
42	86100	81800
43	91700	39800
44	55500	47300
45	99200	30300
46	70100	69500
47	58800	97400
48	55600	78100
49	62700	21300
50	1900	9300
51	83700	39800
52	27700	13300
53	52100	17700
54	69400	87500
55	57500	42800
56	94900	33700
57	75200	45800
58	43200	41700
59	17300	45900
60	88100	96600
61	10100	21000
62	27000	11300
63	95100	3000
64	95900	85600
65	55400	98100
66	7200	87300
67	68100	31900
68	14900	61200
69	79900	20300
70	3000	61800
71	9200	64400
72	99700	10400
73	72700	70700
74	16300	79000
75	36400	96600
76	11900	96900
77	93100	20700
78	82000	84400
79	63000	38400
80	72100	10300
81	20900	81400
82	17600	75100
83	47600	63800
84	7600	17800
85	6200	52300
86	73700	49900
87	44200	61100
88	4200	12300
89	19400	72600
90	83500	58900
91	52100	82500
92	55400	63700
93	1100	70200
94	12900	54000
95	65900	94100
96	12200	68300
97	12300	11900
98	11100	38600
99	25300	26200
100	33800	98900
101	84400	54300
102	59600	17500
103	65700	23400
104	36900	55100
105	68800	92100
106	22800	47300
107	67600	94200
108	46300	12800
109	87500	9700
110	98200	86100
111	6700	60700
112	44500	74800
113	82800	30500
114	65900	43300
115	4300	9800
116	21600	20000
117	67300	66800
118	38700	30300
119	76800	42100
120	25800	54300
121	73700	69800
122	12400	9700
123	85900	22200
124	13000	59900
125	5200	80300
126	15700	46000
127	88800	28900
128	97000	45600
129	85400	77600
130	60000	54900
131	87700	5100
132	99200	96900
133	8000	30400
134	89300	53900
135	80500	7600
136	99000	25600
137	87300	46400
138	30600	11900
139	10100	57400
140	83600	20400
141	7400	22300
142	43800	99600
143	15000	89400
144	97900	96400
145	73300	93900
146	71600	39000
147	78700	2700
148	94700	45000
149	59900	86000
150	89300	53800
151	80100	10600
152	84600	84700
153	62700	62500
154	55300	19300
155	43500	90200
156	86000	10000
157	47200	76500
158	60500	12300
159	88700	32700
160	75200	42600
161	99600	19800
162	78900	61200
163	80300	93500
164	36100	80100
165	76000	73900
166	17000	95800
167	78600	41800
168	10700	47000
169	53100	58600
170	64600	97700
171	89200	11300
172	48600	44500
173	77800	83400
174	43800	49900
175	12800	49400
176	57200	100000
177	17400	96400
178	59900	87100
179	95700	67700
180	51800	17700
181	9300	34900
182	50600	45400
183	79200	91900
184	5500	28400
185	11600	75500
186	36800	12500
187	50200	11400
188	99400	39200
189	52300	83700
190	72100	78000
191	90700	30300
192	71900	84200
193	79900	63800
194	92800	82400
195	28000	16200
196	69700	73600
197	13100	9600
198	68000	68300
199	85000	51200
200	97200	44300
201	91300	53800
202	49900	29600
203	29600	81100
204	66400	10000
205	23700	17900
206	23200	62100
207	25200	65900
208	47400	10700
209	40100	63000
210	55600	12600
211	80400	29600
212	18000	63200
213	40500	38700
214	47500	30000
215	99200	10500
216	13700	10400
217	45400	34000
218	82100	14500
219	30700	10800
220	78000	72500
221	45300	26900
222	75600	67900
223	19600	46700
224	12000	95400
225	51200	34400
226	26600	43500
227	55900	98600
228	24800	2200
229	44600	62700
230	67200	96400
231	24700	60600
232	83400	42500
233	26900	56800
234	11500	32800
235	56500	91500
236	62100	42100
237	70100	51100
238	7000	61000
239	77100	63600
240	93700	53700
241	66400	18700
242	84000	40600
DEMAND_SECTION
1	0
2	6
3	2
4	2
5	1
6	8
7	3
8	1
9	4
10	7
11	10
12	4
13	6
14	9
15	7
16	2
17	6
18	2
19	2
20	5
21	4
22	6
23	4
24	10
25	1
26	1
27	1
28	3
29	1
30	4
31	6
32	1
33	7
34	9
35	7
36	3
37	10
38	10
39	6
40	4
41	1
42	3
43	10
44	10
45	7
46	9
47	10
48	8
49	4
50	10
51	7
52	7
53	7
54	5
55	1
56	3
57	8
58	10
59	7
60	3
61	6
62	3
63	9
64	7
65	10
66	6
67	5
68	8
69	8
70	5
71	2
72	5
73	8
74	1
75	7
76	10
77	9
78	7
79	9
80	7
81	5
82	2
83	5
84	4
85	6
86	10
87	3
88	6
89	3
90	6
91	4
92	3
93	3
94	7
95	6
96	6
97	9
98	6
99	5
100	10
101	7
102	10
103	3
104	1
105	2
106	1
107	8
108	6
109	5
110	10
111	9
112	7
113	6
114	7
115	4
116	9
117	1
118	7
119	2
120	9
121	2
122	10
123	1
124	6
125	4
126	3
127	10
128	4
129	1
130	10
131	5
132	3
133	9
134	8
135	3
136	1
137	10
138	4
139	5
140	2
141	4
142	1
143	4
144	6
145	3
146	7
147	3
148	6
149	5
150	1
151	3
152	9
153	4
154	2
155	6
156	5
157	10
158	7
159	6
160	10
161	2
162	8
163	6
164	7
165	5
166	6
167	8
168	1
169	7
170	10
171	4
172	10
173	10
174	7
175	7
176	1
177	2
178	1
179	2
180	7
181	9
182	7
183	10
184	4
185	3
186	3
187	10
188	2
189	3
190	2
191	8
192	2
193	9
194	10
195	5
196	8
197	8
198	9
199	1
200	10
201	10
202	9
203	7
204	2
205	3
206	3
207	3
208	1
209	1
210	10
211	10
212	5
213	5
214	10
215	7
216	1
217	8
218	1
219	1
220	1
221	4
222	5
223	9
224	7
225	9
226	7
227	3
228	7
229	7
230	2
231	5
232	5
233	7
234	2
235	10
236	3
237	5
238	5
239	5
240	3
241	6
242	3
DEPOT_SECTION
1
-1
EOF
