experiment/data/lkh-res/Vrp-Set-X-n242/Vrp-Set-X-n242-lkh/0.lkh1.log
PARAMETER_FILE = baseline_results/cvrp_lkh/Vrp-Set-X-n242/Vrp-Set-X-n242-lkh/0.lkh1.par
Reading PROBLEM_FILE: "baseline_results/cvrp_lkh/Vrp-Set-X-n242/Vrp-Set-X-n242-lkh/0.lkh1.vrp" ... done
ASCENT_CANDIDATES = 50
BACKBONE_TRIALS = 0
BACKTRACKING = NO
# BWTSP =
# CANDIDATE_FILE =
CANDIDATE_SET_TYPE = ALPHA
# DISTANCE =
DEPOT = 1
# EDGE_FILE =
EXCESS = 0.00413223
EXTERNAL_SALESMEN = 0
EXTRA_CANDIDATES = 0 
EXTRA_CANDIDATE_SET_TYPE = QUADRANT
GAIN23 = NO
GAIN_CRITERION = YES
INITIAL_PERIOD = 121
INITIAL_STEP_SIZE = 1
INITIAL_TOUR_ALGORITHM = WALK
# INITIAL_TOUR_FILE = 
INITIAL_TOUR_FRACTION = 1.000
# INPUT_TOUR_FILE = 
KICK_TYPE = 4
KICKS = 1
# MAX_BREADTH =
MAKESPAN = NO
MAX_CANDIDATES = 5 
MAX_SWAPS = 0
MAX_TRIALS = 10000
# MERGE_TOUR_FILE =
MOVE_TYPE = 5 SPECIAL
MTSP_MIN_SIZE = 1
MTSP_MAX_SIZE = 241
# MTSP_SOLUTION_FILE = 
# NONSEQUENTIAL_MOVE_TYPE = 5
# OPTIMUM =
OUTPUT_TOUR_FILE = baseline_results/cvrp_lkh/Vrp-Set-X-n242/Vrp-Set-X-n242-lkh/0.lkh1.tour
PATCHING_A = 1 
PATCHING_C = 0 
# PI_FILE = 
POPMUSIC_INITIAL_TOUR = NO
POPMUSIC_MAX_NEIGHBORS = 5
POPMUSIC_SAMPLE_SIZE = 10
POPMUSIC_SOLUTIONS = 50
POPMUSIC_TRIALS = 1
POPULATION_SIZE = 10
PRECISION = 100
PROBLEM_FILE = baseline_results/cvrp_lkh/Vrp-Set-X-n242/Vrp-Set-X-n242-lkh/0.lkh1.vrp
RECOMBINATION = IPT
RESTRICTED_SEARCH = YES
RUNS = 1
SALESMEN = 48
SCALE = 1
SEED = 1234
# SINTEF_SOLUTION_FILE = 
STOP_AT_OPTIMUM = YES
SUBGRADIENT = YES
# SUBPROBLEM_SIZE =
# SUBPROBLEM_TOUR_FILE = 
SUBSEQUENT_MOVE_TYPE = 5 SPECIAL
SUBSEQUENT_PATCHING = YES
# TIME_LIMIT =
# TOTAL_TIME_LIMIT =
# TOUR_FILE = 
TRACE_LEVEL = 1
VEHICLES = 48

Lower bound = 4369970.0, Ascent time = 0.10 sec.
Cand.min = 5, Cand.avg = 5.0, Cand.max = 5
Preprocessing time = 0.10 sec.
* 1: Cost = 0_9377012, Time = 0.18 sec. 
Writing OUTPUT_TOUR_FILE: "baseline_results/cvrp_lkh/Vrp-Set-X-n242/Vrp-Set-X-n242-lkh/0.lkh1.tour" ... done
* 2: Cost = 0_9108209, Time = 0.26 sec. 
Writing OUTPUT_TOUR_FILE: "baseline_results/cvrp_lkh/Vrp-Set-X-n242/Vrp-Set-X-n242-lkh/0.lkh1.tour" ... done
* 3: Cost = 0_9059591, Time = 0.30 sec. 
Writing OUTPUT_TOUR_FILE: "baseline_results/cvrp_lkh/Vrp-Set-X-n242/Vrp-Set-X-n242-lkh/0.lkh1.tour" ... done
* 4: Cost = 0_8814661, Time = 0.35 sec. 
Writing OUTPUT_TOUR_FILE: "baseline_results/cvrp_lkh/Vrp-Set-X-n242/Vrp-Set-X-n242-lkh/0.lkh1.tour" ... done
* 9: Cost = 0_8758816, Time = 0.53 sec. 
Writing OUTPUT_TOUR_FILE: "baseline_results/cvrp_lkh/Vrp-Set-X-n242/Vrp-Set-X-n242-lkh/0.lkh1.tour" ... done
* 10: Cost = 0_8722641, Time = 0.55 sec. 
Writing OUTPUT_TOUR_FILE: "baseline_results/cvrp_lkh/Vrp-Set-X-n242/Vrp-Set-X-n242-lkh/0.lkh1.tour" ... done
* 17: Cost = 0_8683802, Time = 0.65 sec. 
Writing OUTPUT_TOUR_FILE: "baseline_results/cvrp_lkh/Vrp-Set-X-n242/Vrp-Set-X-n242-lkh/0.lkh1.tour" ... done
* 18: Cost = 0_8680151, Time = 0.68 sec. 
Writing OUTPUT_TOUR_FILE: "baseline_results/cvrp_lkh/Vrp-Set-X-n242/Vrp-Set-X-n242-lkh/0.lkh1.tour" ... done
* 19: Cost = 0_8664820, Time = 0.71 sec. 
Writing OUTPUT_TOUR_FILE: "baseline_results/cvrp_lkh/Vrp-Set-X-n242/Vrp-Set-X-n242-lkh/0.lkh1.tour" ... done
* 23: Cost = 0_8664770, Time = 0.84 sec. 
Writing OUTPUT_TOUR_FILE: "baseline_results/cvrp_lkh/Vrp-Set-X-n242/Vrp-Set-X-n242-lkh/0.lkh1.tour" ... done
* 28: Cost = 0_8662068, Time = 0.93 sec. 
Writing OUTPUT_TOUR_FILE: "baseline_results/cvrp_lkh/Vrp-Set-X-n242/Vrp-Set-X-n242-lkh/0.lkh1.tour" ... done
* 33: Cost = 0_8661190, Time = 0.95 sec. 
Writing OUTPUT_TOUR_FILE: "baseline_results/cvrp_lkh/Vrp-Set-X-n242/Vrp-Set-X-n242-lkh/0.lkh1.tour" ... done
* 35: Cost = 0_8636577, Time = 1.04 sec. 
Writing OUTPUT_TOUR_FILE: "baseline_results/cvrp_lkh/Vrp-Set-X-n242/Vrp-Set-X-n242-lkh/0.lkh1.tour" ... done
* 38: Cost = 0_8593466, Time = 1.11 sec. 
Writing OUTPUT_TOUR_FILE: "baseline_results/cvrp_lkh/Vrp-Set-X-n242/Vrp-Set-X-n242-lkh/0.lkh1.tour" ... done
* 42: Cost = 0_8590593, Time = 1.16 sec. 
Writing OUTPUT_TOUR_FILE: "baseline_results/cvrp_lkh/Vrp-Set-X-n242/Vrp-Set-X-n242-lkh/0.lkh1.tour" ... done
* 44: Cost = 0_8590333, Time = 1.17 sec. 
Writing OUTPUT_TOUR_FILE: "baseline_results/cvrp_lkh/Vrp-Set-X-n242/Vrp-Set-X-n242-lkh/0.lkh1.tour" ... done
* 45: Cost = 0_8555061, Time = 1.18 sec. 
Writing OUTPUT_TOUR_FILE: "baseline_results/cvrp_lkh/Vrp-Set-X-n242/Vrp-Set-X-n242-lkh/0.lkh1.tour" ... done
* 50: Cost = 0_8551614, Time = 1.26 sec. 
Writing OUTPUT_TOUR_FILE: "baseline_results/cvrp_lkh/Vrp-Set-X-n242/Vrp-Set-X-n242-lkh/0.lkh1.tour" ... done
* 52: Cost = 0_8548116, Time = 1.27 sec. 
Writing OUTPUT_TOUR_FILE: "baseline_results/cvrp_lkh/Vrp-Set-X-n242/Vrp-Set-X-n242-lkh/0.lkh1.tour" ... done
* 55: Cost = 0_8544303, Time = 1.33 sec. 
Writing OUTPUT_TOUR_FILE: "baseline_results/cvrp_lkh/Vrp-Set-X-n242/Vrp-Set-X-n242-lkh/0.lkh1.tour" ... done
* 61: Cost = 0_8539641, Time = 1.39 sec. 
Writing OUTPUT_TOUR_FILE: "baseline_results/cvrp_lkh/Vrp-Set-X-n242/Vrp-Set-X-n242-lkh/0.lkh1.tour" ... done
* 62: Cost = 0_8529795, Time = 1.40 sec. 
Writing OUTPUT_TOUR_FILE: "baseline_results/cvrp_lkh/Vrp-Set-X-n242/Vrp-Set-X-n242-lkh/0.lkh1.tour" ... done
* 64: Cost = 0_8520219, Time = 1.45 sec. 
Writing OUTPUT_TOUR_FILE: "baseline_results/cvrp_lkh/Vrp-Set-X-n242/Vrp-Set-X-n242-lkh/0.lkh1.tour" ... done
* 67: Cost = 0_8516593, Time = 1.50 sec. 
Writing OUTPUT_TOUR_FILE: "baseline_results/cvrp_lkh/Vrp-Set-X-n242/Vrp-Set-X-n242-lkh/0.lkh1.tour" ... done
* 68: Cost = 0_8511211, Time = 1.51 sec. 
Writing OUTPUT_TOUR_FILE: "baseline_results/cvrp_lkh/Vrp-Set-X-n242/Vrp-Set-X-n242-lkh/0.lkh1.tour" ... done
* 74: Cost = 0_8500312, Time = 1.69 sec. 
Writing OUTPUT_TOUR_FILE: "baseline_results/cvrp_lkh/Vrp-Set-X-n242/Vrp-Set-X-n242-lkh/0.lkh1.tour" ... done
* 75: Cost = 0_8494127, Time = 1.71 sec. 
Writing OUTPUT_TOUR_FILE: "baseline_results/cvrp_lkh/Vrp-Set-X-n242/Vrp-Set-X-n242-lkh/0.lkh1.tour" ... done
* 80: Cost = 0_8486551, Time = 1.80 sec. 
Writing OUTPUT_TOUR_FILE: "baseline_results/cvrp_lkh/Vrp-Set-X-n242/Vrp-Set-X-n242-lkh/0.lkh1.tour" ... done
* 83: Cost = 0_8486530, Time = 1.83 sec. 
Writing OUTPUT_TOUR_FILE: "baseline_results/cvrp_lkh/Vrp-Set-X-n242/Vrp-Set-X-n242-lkh/0.lkh1.tour" ... done
* 85: Cost = 0_8478614, Time = 1.85 sec. 
Writing OUTPUT_TOUR_FILE: "baseline_results/cvrp_lkh/Vrp-Set-X-n242/Vrp-Set-X-n242-lkh/0.lkh1.tour" ... done
* 87: Cost = 0_8474513, Time = 1.87 sec. 
Writing OUTPUT_TOUR_FILE: "baseline_results/cvrp_lkh/Vrp-Set-X-n242/Vrp-Set-X-n242-lkh/0.lkh1.tour" ... done
* 91: Cost = 0_8468352, Time = 1.97 sec. 
Writing OUTPUT_TOUR_FILE: "baseline_results/cvrp_lkh/Vrp-Set-X-n242/Vrp-Set-X-n242-lkh/0.lkh1.tour" ... done
* 92: Cost = 0_8463048, Time = 1.99 sec. 
Writing OUTPUT_TOUR_FILE: "baseline_results/cvrp_lkh/Vrp-Set-X-n242/Vrp-Set-X-n242-lkh/0.lkh1.tour" ... done
* 96: Cost = 0_8449622, Time = 2.09 sec. 
Writing OUTPUT_TOUR_FILE: "baseline_results/cvrp_lkh/Vrp-Set-X-n242/Vrp-Set-X-n242-lkh/0.lkh1.tour" ... done
* 110: Cost = 0_8441633, Time = 2.31 sec. 
Writing OUTPUT_TOUR_FILE: "baseline_results/cvrp_lkh/Vrp-Set-X-n242/Vrp-Set-X-n242-lkh/0.lkh1.tour" ... done
* 117: Cost = 0_8440594, Time = 2.45 sec. 
Writing OUTPUT_TOUR_FILE: "baseline_results/cvrp_lkh/Vrp-Set-X-n242/Vrp-Set-X-n242-lkh/0.lkh1.tour" ... done
* 120: Cost = 0_8430214, Time = 2.50 sec. 
Writing OUTPUT_TOUR_FILE: "baseline_results/cvrp_lkh/Vrp-Set-X-n242/Vrp-Set-X-n242-lkh/0.lkh1.tour" ... done
* 128: Cost = 0_8430181, Time = 2.61 sec. 
Writing OUTPUT_TOUR_FILE: "baseline_results/cvrp_lkh/Vrp-Set-X-n242/Vrp-Set-X-n242-lkh/0.lkh1.tour" ... done
* 140: Cost = 0_8429987, Time = 2.79 sec. 
Writing OUTPUT_TOUR_FILE: "baseline_results/cvrp_lkh/Vrp-Set-X-n242/Vrp-Set-X-n242-lkh/0.lkh1.tour" ... done
* 156: Cost = 0_8429901, Time = 3.24 sec. 
Writing OUTPUT_TOUR_FILE: "baseline_results/cvrp_lkh/Vrp-Set-X-n242/Vrp-Set-X-n242-lkh/0.lkh1.tour" ... done
* 158: Cost = 0_8429706, Time = 3.33 sec. 
Writing OUTPUT_TOUR_FILE: "baseline_results/cvrp_lkh/Vrp-Set-X-n242/Vrp-Set-X-n242-lkh/0.lkh1.tour" ... done
* 183: Cost = 0_8429652, Time = 3.83 sec. 
Writing OUTPUT_TOUR_FILE: "baseline_results/cvrp_lkh/Vrp-Set-X-n242/Vrp-Set-X-n242-lkh/0.lkh1.tour" ... done
* 226: Cost = 0_8428769, Time = 4.47 sec. 
Writing OUTPUT_TOUR_FILE: "baseline_results/cvrp_lkh/Vrp-Set-X-n242/Vrp-Set-X-n242-lkh/0.lkh1.tour" ... done
* 227: Cost = 0_8428433, Time = 4.48 sec. 
Writing OUTPUT_TOUR_FILE: "baseline_results/cvrp_lkh/Vrp-Set-X-n242/Vrp-Set-X-n242-lkh/0.lkh1.tour" ... done
* 241: Cost = 0_8427384, Time = 4.74 sec. 
Writing OUTPUT_TOUR_FILE: "baseline_results/cvrp_lkh/Vrp-Set-X-n242/Vrp-Set-X-n242-lkh/0.lkh1.tour" ... done
* 259: Cost = 0_8427334, Time = 4.99 sec. 
Writing OUTPUT_TOUR_FILE: "baseline_results/cvrp_lkh/Vrp-Set-X-n242/Vrp-Set-X-n242-lkh/0.lkh1.tour" ... done
* 262: Cost = 0_8425573, Time = 5.03 sec. 
Writing OUTPUT_TOUR_FILE: "baseline_results/cvrp_lkh/Vrp-Set-X-n242/Vrp-Set-X-n242-lkh/0.lkh1.tour" ... done
* 263: Cost = 0_8425028, Time = 5.04 sec. 
Writing OUTPUT_TOUR_FILE: "baseline_results/cvrp_lkh/Vrp-Set-X-n242/Vrp-Set-X-n242-lkh/0.lkh1.tour" ... done
* 271: Cost = 0_8422785, Time = 5.16 sec. 
Writing OUTPUT_TOUR_FILE: "baseline_results/cvrp_lkh/Vrp-Set-X-n242/Vrp-Set-X-n242-lkh/0.lkh1.tour" ... done
* 359: Cost = 0_8422577, Time = 6.74 sec. 
Writing OUTPUT_TOUR_FILE: "baseline_results/cvrp_lkh/Vrp-Set-X-n242/Vrp-Set-X-n242-lkh/0.lkh1.tour" ... done
* 393: Cost = 0_8421829, Time = 7.36 sec. 
Writing OUTPUT_TOUR_FILE: "baseline_results/cvrp_lkh/Vrp-Set-X-n242/Vrp-Set-X-n242-lkh/0.lkh1.tour" ... done
* 394: Cost = 0_8419873, Time = 7.38 sec. 
Writing OUTPUT_TOUR_FILE: "baseline_results/cvrp_lkh/Vrp-Set-X-n242/Vrp-Set-X-n242-lkh/0.lkh1.tour" ... done
* 418: Cost = 0_8419486, Time = 7.81 sec. 
Writing OUTPUT_TOUR_FILE: "baseline_results/cvrp_lkh/Vrp-Set-X-n242/Vrp-Set-X-n242-lkh/0.lkh1.tour" ... done
* 478: Cost = 0_8418842, Time = 8.88 sec. 
Writing OUTPUT_TOUR_FILE: "baseline_results/cvrp_lkh/Vrp-Set-X-n242/Vrp-Set-X-n242-lkh/0.lkh1.tour" ... done
* 484: Cost = 0_8418269, Time = 8.97 sec. 
Writing OUTPUT_TOUR_FILE: "baseline_results/cvrp_lkh/Vrp-Set-X-n242/Vrp-Set-X-n242-lkh/0.lkh1.tour" ... done
* 485: Cost = 0_8418267, Time = 8.98 sec. 
Writing OUTPUT_TOUR_FILE: "baseline_results/cvrp_lkh/Vrp-Set-X-n242/Vrp-Set-X-n242-lkh/0.lkh1.tour" ... done
* 488: Cost = 0_8417468, Time = 9.05 sec. 
Writing OUTPUT_TOUR_FILE: "baseline_results/cvrp_lkh/Vrp-Set-X-n242/Vrp-Set-X-n242-lkh/0.lkh1.tour" ... done
* 506: Cost = 0_8416726, Time = 9.50 sec. 
Writing OUTPUT_TOUR_FILE: "baseline_results/cvrp_lkh/Vrp-Set-X-n242/Vrp-Set-X-n242-lkh/0.lkh1.tour" ... done
* 510: Cost = 0_8413694, Time = 9.55 sec. 
Writing OUTPUT_TOUR_FILE: "baseline_results/cvrp_lkh/Vrp-Set-X-n242/Vrp-Set-X-n242-lkh/0.lkh1.tour" ... done
* 540: Cost = 0_8413049, Time = 9.95 sec. 
Writing OUTPUT_TOUR_FILE: "baseline_results/cvrp_lkh/Vrp-Set-X-n242/Vrp-Set-X-n242-lkh/0.lkh1.tour" ... done
* 548: Cost = 0_8412960, Time = 10.03 sec. 
Writing OUTPUT_TOUR_FILE: "baseline_results/cvrp_lkh/Vrp-Set-X-n242/Vrp-Set-X-n242-lkh/0.lkh1.tour" ... done
* 629: Cost = 0_8412838, Time = 11.59 sec. 
Writing OUTPUT_TOUR_FILE: "baseline_results/cvrp_lkh/Vrp-Set-X-n242/Vrp-Set-X-n242-lkh/0.lkh1.tour" ... done
* 666: Cost = 0_8404935, Time = 12.05 sec. 
Writing OUTPUT_TOUR_FILE: "baseline_results/cvrp_lkh/Vrp-Set-X-n242/Vrp-Set-X-n242-lkh/0.lkh1.tour" ... done
* 694: Cost = 0_8403330, Time = 12.51 sec. 
Writing OUTPUT_TOUR_FILE: "baseline_results/cvrp_lkh/Vrp-Set-X-n242/Vrp-Set-X-n242-lkh/0.lkh1.tour" ... done
* 702: Cost = 0_8401231, Time = 12.58 sec. 
Writing OUTPUT_TOUR_FILE: "baseline_results/cvrp_lkh/Vrp-Set-X-n242/Vrp-Set-X-n242-lkh/0.lkh1.tour" ... done
* 708: Cost = 0_8400725, Time = 12.61 sec. 
Writing OUTPUT_TOUR_FILE: "baseline_results/cvrp_lkh/Vrp-Set-X-n242/Vrp-Set-X-n242-lkh/0.lkh1.tour" ... done
* 713: Cost = 0_8400305, Time = 12.74 sec. 
Writing OUTPUT_TOUR_FILE: "baseline_results/cvrp_lkh/Vrp-Set-X-n242/Vrp-Set-X-n242-lkh/0.lkh1.tour" ... done
* 719: Cost = 0_8399299, Time = 12.76 sec. 
Writing OUTPUT_TOUR_FILE: "baseline_results/cvrp_lkh/Vrp-Set-X-n242/Vrp-Set-X-n242-lkh/0.lkh1.tour" ... done
* 733: Cost = 0_8398559, Time = 12.98 sec. 
Writing OUTPUT_TOUR_FILE: "baseline_results/cvrp_lkh/Vrp-Set-X-n242/Vrp-Set-X-n242-lkh/0.lkh1.tour" ... done
* 768: Cost = 0_8398164, Time = 13.61 sec. 
Writing OUTPUT_TOUR_FILE: "baseline_results/cvrp_lkh/Vrp-Set-X-n242/Vrp-Set-X-n242-lkh/0.lkh1.tour" ... done
* 891: Cost = 0_8397390, Time = 16.06 sec. 
Writing OUTPUT_TOUR_FILE: "baseline_results/cvrp_lkh/Vrp-Set-X-n242/Vrp-Set-X-n242-lkh/0.lkh1.tour" ... done
* 963: Cost = 0_8395869, Time = 17.38 sec. 
Writing OUTPUT_TOUR_FILE: "baseline_results/cvrp_lkh/Vrp-Set-X-n242/Vrp-Set-X-n242-lkh/0.lkh1.tour" ... done
* 972: Cost = 0_8394761, Time = 17.50 sec. 
Writing OUTPUT_TOUR_FILE: "baseline_results/cvrp_lkh/Vrp-Set-X-n242/Vrp-Set-X-n242-lkh/0.lkh1.tour" ... done
* 980: Cost = 0_8394330, Time = 17.63 sec. 
Writing OUTPUT_TOUR_FILE: "baseline_results/cvrp_lkh/Vrp-Set-X-n242/Vrp-Set-X-n242-lkh/0.lkh1.tour" ... done
* 983: Cost = 0_8393910, Time = 17.66 sec. 
Writing OUTPUT_TOUR_FILE: "baseline_results/cvrp_lkh/Vrp-Set-X-n242/Vrp-Set-X-n242-lkh/0.lkh1.tour" ... done
* 992: Cost = 0_8393815, Time = 17.89 sec. 
Writing OUTPUT_TOUR_FILE: "baseline_results/cvrp_lkh/Vrp-Set-X-n242/Vrp-Set-X-n242-lkh/0.lkh1.tour" ... done
* 995: Cost = 0_8393538, Time = 17.93 sec. 
Writing OUTPUT_TOUR_FILE: "baseline_results/cvrp_lkh/Vrp-Set-X-n242/Vrp-Set-X-n242-lkh/0.lkh1.tour" ... done
* 1062: Cost = 0_8379308, Time = 19.15 sec. 
Writing OUTPUT_TOUR_FILE: "baseline_results/cvrp_lkh/Vrp-Set-X-n242/Vrp-Set-X-n242-lkh/0.lkh1.tour" ... done
* 1084: Cost = 0_8379170, Time = 19.62 sec. 
Writing OUTPUT_TOUR_FILE: "baseline_results/cvrp_lkh/Vrp-Set-X-n242/Vrp-Set-X-n242-lkh/0.lkh1.tour" ... done
* 1113: Cost = 0_8379126, Time = 20.15 sec. 
Writing OUTPUT_TOUR_FILE: "baseline_results/cvrp_lkh/Vrp-Set-X-n242/Vrp-Set-X-n242-lkh/0.lkh1.tour" ... done
* 1228: Cost = 0_8375710, Time = 22.06 sec. 
Writing OUTPUT_TOUR_FILE: "baseline_results/cvrp_lkh/Vrp-Set-X-n242/Vrp-Set-X-n242-lkh/0.lkh1.tour" ... done
* 1240: Cost = 0_8375502, Time = 22.32 sec. 
Writing OUTPUT_TOUR_FILE: "baseline_results/cvrp_lkh/Vrp-Set-X-n242/Vrp-Set-X-n242-lkh/0.lkh1.tour" ... done
* 1262: Cost = 0_8374547, Time = 22.67 sec. 
Writing OUTPUT_TOUR_FILE: "baseline_results/cvrp_lkh/Vrp-Set-X-n242/Vrp-Set-X-n242-lkh/0.lkh1.tour" ... done
* 1275: Cost = 0_8367283, Time = 22.89 sec. 
Writing OUTPUT_TOUR_FILE: "baseline_results/cvrp_lkh/Vrp-Set-X-n242/Vrp-Set-X-n242-lkh/0.lkh1.tour" ... done
* 1448: Cost = 0_8357848, Time = 25.72 sec. 
Writing OUTPUT_TOUR_FILE: "baseline_results/cvrp_lkh/Vrp-Set-X-n242/Vrp-Set-X-n242-lkh/0.lkh1.tour" ... done
* 1513: Cost = 0_8356932, Time = 26.98 sec. 
Writing OUTPUT_TOUR_FILE: "baseline_results/cvrp_lkh/Vrp-Set-X-n242/Vrp-Set-X-n242-lkh/0.lkh1.tour" ... done
* 1520: Cost = 0_8355212, Time = 27.07 sec. 
Writing OUTPUT_TOUR_FILE: "baseline_results/cvrp_lkh/Vrp-Set-X-n242/Vrp-Set-X-n242-lkh/0.lkh1.tour" ... done
* 1536: Cost = 0_8355156, Time = 27.50 sec. 
Writing OUTPUT_TOUR_FILE: "baseline_results/cvrp_lkh/Vrp-Set-X-n242/Vrp-Set-X-n242-lkh/0.lkh1.tour" ... done
* 1541: Cost = 0_8355051, Time = 27.53 sec. 
Writing OUTPUT_TOUR_FILE: "baseline_results/cvrp_lkh/Vrp-Set-X-n242/Vrp-Set-X-n242-lkh/0.lkh1.tour" ... done
* 1769: Cost = 0_8346690, Time = 31.97 sec. 
Writing OUTPUT_TOUR_FILE: "baseline_results/cvrp_lkh/Vrp-Set-X-n242/Vrp-Set-X-n242-lkh/0.lkh1.tour" ... done
* 1816: Cost = 0_8346673, Time = 32.52 sec. 
Writing OUTPUT_TOUR_FILE: "baseline_results/cvrp_lkh/Vrp-Set-X-n242/Vrp-Set-X-n242-lkh/0.lkh1.tour" ... done
* 2045: Cost = 0_8345642, Time = 36.49 sec. 
Writing OUTPUT_TOUR_FILE: "baseline_results/cvrp_lkh/Vrp-Set-X-n242/Vrp-Set-X-n242-lkh/0.lkh1.tour" ... done
* 2094: Cost = 0_8344243, Time = 37.35 sec. 
Writing OUTPUT_TOUR_FILE: "baseline_results/cvrp_lkh/Vrp-Set-X-n242/Vrp-Set-X-n242-lkh/0.lkh1.tour" ... done
* 2191: Cost = 0_8343797, Time = 39.16 sec. 
Writing OUTPUT_TOUR_FILE: "baseline_results/cvrp_lkh/Vrp-Set-X-n242/Vrp-Set-X-n242-lkh/0.lkh1.tour" ... done
* 2197: Cost = 0_8342461, Time = 39.32 sec. 
Writing OUTPUT_TOUR_FILE: "baseline_results/cvrp_lkh/Vrp-Set-X-n242/Vrp-Set-X-n242-lkh/0.lkh1.tour" ... done
* 2255: Cost = 0_8342426, Time = 40.64 sec. 
Writing OUTPUT_TOUR_FILE: "baseline_results/cvrp_lkh/Vrp-Set-X-n242/Vrp-Set-X-n242-lkh/0.lkh1.tour" ... done
* 3460: Cost = 0_8341624, Time = 63.34 sec. 
Writing OUTPUT_TOUR_FILE: "baseline_results/cvrp_lkh/Vrp-Set-X-n242/Vrp-Set-X-n242-lkh/0.lkh1.tour" ... done
* 3774: Cost = 0_8338285, Time = 68.97 sec. 
Writing OUTPUT_TOUR_FILE: "baseline_results/cvrp_lkh/Vrp-Set-X-n242/Vrp-Set-X-n242-lkh/0.lkh1.tour" ... done
* 3785: Cost = 0_8337086, Time = 69.16 sec. 
Writing OUTPUT_TOUR_FILE: "baseline_results/cvrp_lkh/Vrp-Set-X-n242/Vrp-Set-X-n242-lkh/0.lkh1.tour" ... done
* 3795: Cost = 0_8335366, Time = 69.36 sec. 
Writing OUTPUT_TOUR_FILE: "baseline_results/cvrp_lkh/Vrp-Set-X-n242/Vrp-Set-X-n242-lkh/0.lkh1.tour" ... done
* 3824: Cost = 0_8335166, Time = 69.85 sec. 
Writing OUTPUT_TOUR_FILE: "baseline_results/cvrp_lkh/Vrp-Set-X-n242/Vrp-Set-X-n242-lkh/0.lkh1.tour" ... done
* 3973: Cost = 0_8335129, Time = 72.56 sec. 
Writing OUTPUT_TOUR_FILE: "baseline_results/cvrp_lkh/Vrp-Set-X-n242/Vrp-Set-X-n242-lkh/0.lkh1.tour" ... done
* 4121: Cost = 0_8335007, Time = 74.98 sec. 
Writing OUTPUT_TOUR_FILE: "baseline_results/cvrp_lkh/Vrp-Set-X-n242/Vrp-Set-X-n242-lkh/0.lkh1.tour" ... done
* 4264: Cost = 0_8334818, Time = 77.45 sec. 
Writing OUTPUT_TOUR_FILE: "baseline_results/cvrp_lkh/Vrp-Set-X-n242/Vrp-Set-X-n242-lkh/0.lkh1.tour" ... done
* 4605: Cost = 0_8333806, Time = 83.79 sec. 
Writing OUTPUT_TOUR_FILE: "baseline_results/cvrp_lkh/Vrp-Set-X-n242/Vrp-Set-X-n242-lkh/0.lkh1.tour" ... done
* 4646: Cost = 0_8333800, Time = 84.65 sec. 
Writing OUTPUT_TOUR_FILE: "baseline_results/cvrp_lkh/Vrp-Set-X-n242/Vrp-Set-X-n242-lkh/0.lkh1.tour" ... done
* 4707: Cost = 0_8333571, Time = 85.87 sec. 
Writing OUTPUT_TOUR_FILE: "baseline_results/cvrp_lkh/Vrp-Set-X-n242/Vrp-Set-X-n242-lkh/0.lkh1.tour" ... done
Population:
  1: 0_8333571
Run 1: Cost = 0_8333571, Time = 187.59 sec. 

Successes/Runs = 0/1 
Cost.min = 8333571, Cost.avg = 8333571.00, Cost.max = 8333571
Gap.min = 0.0000%, Gap.avg = 0.0000%, Gap.max = 0.0000%
Penalty.min = 0, Penalty.avg = 0.00, Penalty.max = 0
Trials.min = 10000, Trials.avg = 10000.0, Trials.max = 10000
Time.min = 187.59 sec., Time.avg = 187.59 sec., Time.max = 187.59 sec.
Time.total = 187.69 sec.
  Size.min = 3, Size.max = 8, Penalty = 0
  Cost.min = 26476, Cost.max = 284838, Cost.sum = 8333571
Best CVRP solution:
  Cost = 0_8333571

