experiment/data/lkh-res/Vrp-Set-X-n242/Vrp-Set-X-n242-lkh/0.lkh1.tour
NAME : 0.8333571.tour
COMMENT : Length = 8333571
COMMENT : Found by LKH-3 [Keld Helsgaun] Tue Apr  9 04:28:49 2024
TYPE : TOUR
DIMENSION : 289
TOUR_SECTION
1
29
58
172
182
260
55
16
90
23
38
240
119
283
221
202
31
225
289
206
32
34
82
89
4
212
36
256
62
52
195
138
228
254
222
239
193
162
41
271
154
49
103
211
7
241
285
178
95
170
235
27
268
98
126
59
223
234
265
57
137
43
247
97
197
122
246
147
39
131
63
109
284
180
53
9
214
288
199
201
150
134
101
216
248
104
107
230
3
145
24
105
250
121
220
42
194
110
179
281
85
111
238
139
259
133
181
116
257
209
91
149
20
48
83
251
84
61
10
184
22
249
40
198
117
153
130
276
207
203
164
2
231
287
13
218
19
171
33
156
151
269
136
45
191
159
113
272
168
96
185
66
125
93
70
253
5
30
100
75
155
280
204
15
80
37
263
236
237
86
160
282
142
65
227
176
47
189
286
124
68
94
175
279
102
158
210
208
273
112
157
229
87
275
69
140
123
127
17
219
262
12
44
169
174
261
129
64
144
132
8
35
60
274
26
21
51
242
232
167
266
99
213
217
118
205
258
6
11
76
277
226
233
120
106
141
252
79
114
146
67
278
46
73
196
92
264
192
54
163
183
165
243
152
78
173
190
255
25
81
166
177
224
143
74
71
245
28
56
188
200
128
148
267
186
187
108
14
270
135
215
72
161
18
77
244
115
88
50
-1
EOF
